\ LP format - for model browsing. Use MPS format to capture full model detail.
Minimize
  - 7.6291527769600362e+07 Y0_0_1_1_0 - 7.6291527769600362e+07 Y0_0_1_1_1
   - 7.6291527769600362e+07 Y0_0_1_1_2 - 7.6291527769600362e+07 Y0_0_1_1_3
   - 8.4009211075757101e+07 Y0_0_1_2_0 - 8.4009211075757101e+07 Y0_0_1_2_1
   - 8.4009211075757101e+07 Y0_0_1_2_2 - 8.4009211075757101e+07 Y0_0_1_2_3
   - 8.2251730101646483e+07 Y0_0_1_3_0 - 8.2251730101646483e+07 Y0_0_1_3_1
   - 8.2251730101646483e+07 Y0_0_1_3_2 - 8.2251730101646483e+07 Y0_0_1_3_3
   - 8.3152731544539779e+07 Y0_1_1_2_0 - 8.3152731544539779e+07 Y0_1_1_2_1
   - 8.3152731544539779e+07 Y0_1_1_2_2 - 8.3152731544539779e+07 Y0_1_1_2_3
   - 8.140240552327396e+07 Y0_1_1_3_0 - 8.140240552327396e+07 Y0_1_1_3_1
   - 8.140240552327396e+07 Y0_1_1_3_2 - 8.140240552327396e+07 Y0_1_1_3_3
   - 7.9227502281661704e+07 Y0_2_1_3_0 - 7.9227502281661704e+07 Y0_2_1_3_1
   - 7.9227502281661704e+07 Y0_2_1_3_2 - 7.9227502281661704e+07 Y0_2_1_3_3
Subject To
 R0: X0_0_0 + X0_0_1 + X0_0_2 + X0_0_3 = 1
 R1: X0_1_0 + X0_1_1 + X0_1_2 + X0_1_3 = 1
 R2: X0_2_0 + X0_2_1 + X0_2_2 + X0_2_3 = 1
 R3: X0_3_0 + X0_3_1 + X0_3_2 + X0_3_3 = 1
 R4: X1_0_0 + X1_0_1 + X1_0_2 + X1_0_3 = 1
 R5: X1_1_0 + X1_1_1 + X1_1_2 + X1_1_3 = 1
 R6: X1_2_0 + X1_2_1 + X1_2_2 + X1_2_3 = 1
 R7: X1_3_0 + X1_3_1 + X1_3_2 + X1_3_3 = 1
 R8: X0_0_0 + X0_1_0 + X0_2_0 + X0_3_0 = 1
 R9: X1_0_0 + X1_1_0 + X1_2_0 + X1_3_0 = 1
 R10: X0_0_1 + X0_1_1 + X0_2_1 + X0_3_1 = 1
 R11: X1_0_1 + X1_1_1 + X1_2_1 + X1_3_1 = 1
 R12: X0_0_2 + X0_1_2 + X0_2_2 + X0_3_2 = 1
 R13: X1_0_2 + X1_1_2 + X1_2_2 + X1_3_2 = 1
 R14: X0_0_3 + X0_1_3 + X0_2_3 + X0_3_3 = 1
 R15: X1_0_3 + X1_1_3 + X1_2_3 + X1_3_3 = 1
 R16: - X0_0_0 + Y0_0_1_1_0 <= 0
 R17: - X0_0_0 + Y0_0_1_1_0 <= 0
 R18: - 2 X0_0_0 + Y0_0_1_1_0 >= -1
 R19: - X0_0_0 + Y0_0_1_2_0 <= 0
 R20: - X0_1_0 + Y0_0_1_2_0 <= 0
 R21: - X0_0_0 - X0_1_0 + Y0_0_1_2_0 >= -1
 R22: - X0_0_0 + Y0_0_1_3_0 <= 0
 R23: - X0_2_0 + Y0_0_1_3_0 <= 0
 R24: - X0_0_0 - X0_2_0 + Y0_0_1_3_0 >= -1
 R25: - X0_1_0 + Y0_1_1_2_0 <= 0
 R26: - X0_0_0 + Y0_1_1_2_0 <= 0
 R27: - X0_0_0 - X0_1_0 + Y0_1_1_2_0 >= -1
 R28: - X0_1_0 + Y0_1_1_3_0 <= 0
 R29: - X0_1_0 + Y0_1_1_3_0 <= 0
 R30: - 2 X0_1_0 + Y0_1_1_3_0 >= -1
 R31: - X0_2_0 + Y0_2_1_3_0 <= 0
 R32: - X0_0_0 + Y0_2_1_3_0 <= 0
 R33: - X0_0_0 - X0_2_0 + Y0_2_1_3_0 >= -1
 R34: - X0_0_1 + Y0_0_1_1_1 <= 0
 R35: - X0_0_1 + Y0_0_1_1_1 <= 0
 R36: - 2 X0_0_1 + Y0_0_1_1_1 >= -1
 R37: - X0_0_1 + Y0_0_1_2_1 <= 0
 R38: - X0_1_1 + Y0_0_1_2_1 <= 0
 R39: - X0_0_1 - X0_1_1 + Y0_0_1_2_1 >= -1
 R40: - X0_0_1 + Y0_0_1_3_1 <= 0
 R41: - X0_2_1 + Y0_0_1_3_1 <= 0
 R42: - X0_0_1 - X0_2_1 + Y0_0_1_3_1 >= -1
 R43: - X0_1_1 + Y0_1_1_2_1 <= 0
 R44: - X0_0_1 + Y0_1_1_2_1 <= 0
 R45: - X0_0_1 - X0_1_1 + Y0_1_1_2_1 >= -1
 R46: - X0_1_1 + Y0_1_1_3_1 <= 0
 R47: - X0_1_1 + Y0_1_1_3_1 <= 0
 R48: - 2 X0_1_1 + Y0_1_1_3_1 >= -1
 R49: - X0_2_1 + Y0_2_1_3_1 <= 0
 R50: - X0_0_1 + Y0_2_1_3_1 <= 0
 R51: - X0_0_1 - X0_2_1 + Y0_2_1_3_1 >= -1
 R52: - X0_0_2 + Y0_0_1_1_2 <= 0
 R53: - X0_0_2 + Y0_0_1_1_2 <= 0
 R54: - 2 X0_0_2 + Y0_0_1_1_2 >= -1
 R55: - X0_0_2 + Y0_0_1_2_2 <= 0
 R56: - X0_1_2 + Y0_0_1_2_2 <= 0
 R57: - X0_0_2 - X0_1_2 + Y0_0_1_2_2 >= -1
 R58: - X0_0_2 + Y0_0_1_3_2 <= 0
 R59: - X0_2_2 + Y0_0_1_3_2 <= 0
 R60: - X0_0_2 - X0_2_2 + Y0_0_1_3_2 >= -1
 R61: - X0_1_2 + Y0_1_1_2_2 <= 0
 R62: - X0_0_2 + Y0_1_1_2_2 <= 0
 R63: - X0_0_2 - X0_1_2 + Y0_1_1_2_2 >= -1
 R64: - X0_1_2 + Y0_1_1_3_2 <= 0
 R65: - X0_1_2 + Y0_1_1_3_2 <= 0
 R66: - 2 X0_1_2 + Y0_1_1_3_2 >= -1
 R67: - X0_2_2 + Y0_2_1_3_2 <= 0
 R68: - X0_0_2 + Y0_2_1_3_2 <= 0
 R69: - X0_0_2 - X0_2_2 + Y0_2_1_3_2 >= -1
 R70: - X0_0_3 + Y0_0_1_1_3 <= 0
 R71: - X0_0_3 + Y0_0_1_1_3 <= 0
 R72: - 2 X0_0_3 + Y0_0_1_1_3 >= -1
 R73: - X0_0_3 + Y0_0_1_2_3 <= 0
 R74: - X0_1_3 + Y0_0_1_2_3 <= 0
 R75: - X0_0_3 - X0_1_3 + Y0_0_1_2_3 >= -1
 R76: - X0_0_3 + Y0_0_1_3_3 <= 0
 R77: - X0_2_3 + Y0_0_1_3_3 <= 0
 R78: - X0_0_3 - X0_2_3 + Y0_0_1_3_3 >= -1
 R79: - X0_1_3 + Y0_1_1_2_3 <= 0
 R80: - X0_0_3 + Y0_1_1_2_3 <= 0
 R81: - X0_0_3 - X0_1_3 + Y0_1_1_2_3 >= -1
 R82: - X0_1_3 + Y0_1_1_3_3 <= 0
 R83: - X0_1_3 + Y0_1_1_3_3 <= 0
 R84: - 2 X0_1_3 + Y0_1_1_3_3 >= -1
 R85: - X0_2_3 + Y0_2_1_3_3 <= 0
 R86: - X0_0_3 + Y0_2_1_3_3 <= 0
 R87: - X0_0_3 - X0_2_3 + Y0_2_1_3_3 >= -1
Bounds
Binaries
 X0_0_0 X0_0_1 X0_0_2 X0_0_3 X0_1_0 X0_1_1 X0_1_2 X0_1_3 X0_2_0 X0_2_1
 X0_2_2 X0_2_3 X0_3_0 X0_3_1 X0_3_2 X0_3_3 X1_0_0 X1_0_1 X1_0_2 X1_0_3
 X1_1_0 X1_1_1 X1_1_2 X1_1_3 X1_2_0 X1_2_1 X1_2_2 X1_2_3 X1_3_0 X1_3_1
 X1_3_2 X1_3_3 Y0_0_1_1_0 Y0_0_1_1_1 Y0_0_1_1_2 Y0_0_1_1_3 Y0_0_1_2_0
 Y0_0_1_2_1 Y0_0_1_2_2 Y0_0_1_2_3 Y0_0_1_3_0 Y0_0_1_3_1 Y0_0_1_3_2
 Y0_0_1_3_3 Y0_1_1_2_0 Y0_1_1_2_1 Y0_1_1_2_2 Y0_1_1_2_3 Y0_1_1_3_0
 Y0_1_1_3_1 Y0_1_1_3_2 Y0_1_1_3_3 Y0_2_1_3_0 Y0_2_1_3_1 Y0_2_1_3_2
 Y0_2_1_3_3
End
